0 1 242 0 1 
0 2 646 0 1 10 2 
0 3 854 0 1 10 7 3 
0 4 255 0 4 
0 5 1061 0 1 10 7 9 5 
0 6 1027 0 1 10 8 6 
0 7 636 0 1 10 7 
0 8 785 0 1 10 8 
0 9 811 0 1 10 7 9 
0 10 451 0 1 10 
0 11 816 0 4 12 11 
0 12 544 0 4 12 
1 2 404 1 10 2 
1 3 612 1 10 7 3 
1 4 497 1 0 4 
1 5 819 1 10 7 9 5 
1 6 785 1 10 8 6 
1 7 393 1 10 7 
1 8 544 1 10 8 
1 9 569 1 10 7 9 
1 10 208 1 10 
1 11 592 1 10 2 11 
1 12 590 1 10 7 12 
2 3 325 2 11 3 
2 4 678 2 7 4 
2 5 711 2 7 9 5 
2 6 765 2 7 9 6 
2 7 285 2 7 
2 8 530 2 10 8 
2 9 461 2 7 9 
2 10 195 2 10 
2 11 189 2 11 
2 12 461 2 11 12 
3 4 612 3 7 4 
3 5 646 3 7 9 5 
3 6 700 3 7 9 6 
3 7 219 3 7 
3 8 739 3 7 10 8 
3 9 396 3 7 9 
3 10 404 3 7 10 
3 11 136 3 11 
3 12 408 3 11 12 
4 5 819 4 7 9 5 
4 6 873 4 7 9 6 
4 7 393 4 7 
4 8 912 4 7 10 8 
4 9 569 4 7 9 
4 10 577 4 7 10 
4 11 561 4 12 11 
4 12 288 4 12 
5 6 554 5 9 6 
5 7 427 5 9 7 
5 8 328 5 8 
5 9 250 5 9 
5 10 610 5 9 7 10 
5 11 781 5 9 7 3 11 
5 12 624 5 9 7 12 
6 7 481 6 9 7 
6 8 242 6 8 
6 9 304 6 9 
6 10 577 6 8 10 
6 11 836 6 9 7 3 11 
6 12 678 6 9 7 12 
7 8 519 7 10 8 
7 9 176 7 9 
7 10 184 7 10 
7 11 355 7 3 11 
7 12 197 7 12 
8 9 546 8 6 9 
8 10 335 8 10 
8 11 718 8 10 2 11 
8 12 717 8 10 7 12 
9 10 361 9 7 10 
9 11 532 9 7 3 11 
9 12 374 9 7 12 
10 11 384 10 2 11 
10 12 382 10 7 12 
11 12 272 11 12 
